p cnf 38 102
a 27 6 0
e 1 2 3 4 5 7 8 9 10 11 12 13 14 15 16 17 18 19 20 21 22 23 24 25 26 28 29 30 31 32 33 34 35 36 37 38 0
-1 2 -3 0
1 -2 -3 0
-1 -2 3 0
1 2 3 0
5 -3 0
5 4 0
3 -4 -5 0
-8 -6 0
-8 -7 0
6 7 8 0
-9 -10 0
9 -10 0
11 -8 0
11 10 0
8 -10 -11 0
-12 -5 0
-12 11 0
5 -11 12 0
-13 1 0
-13 4 0
-1 -4 13 0
-14 -13 0
-14 -13 0
13 14 0
-15 -12 0
-15 14 0
12 -14 15 0
-16 -17 -18 0
16 17 -18 0
-16 17 18 0
16 -17 18 0
-19 -3 0
-19 18 0
3 -18 19 0
-8 18 -20 0
8 -18 -20 0
-8 -18 20 0
8 18 20 0
-19 20 -21 0
19 -20 -21 0
-19 -20 21 0
19 20 21 0
22 -15 0
22 21 0
15 -21 -22 0
13 -4 -23 0
-13 4 -23 0
13 4 23 0
-13 -4 23 0
-25 18 0
-25 -24 0
-18 24 25 0
3 -16 -26 0
-3 16 -26 0
3 16 26 0
-3 -16 26 0
-25 26 -27 0
25 -26 -27 0
-25 -26 27 0
25 26 27 0
-23 27 -28 0
23 -27 -28 0
-23 -27 28 0
23 27 28 0
29 3 0
29 -8 0
-3 8 -29 0
-8 -29 -30 0
8 29 -30 0
-8 29 30 0
8 -29 30 0
32 30 0
32 -31 0
-30 31 -32 0
-33 1 0
-33 -18 0
-1 18 33 0
-34 -4 0
-34 -1 0
4 1 34 0
35 -33 0
35 34 0
33 -34 -35 0
36 32 0
36 35 0
-32 -35 -36 0
37 -28 0
37 -36 0
28 36 -37 0
38 -22 0
38 37 0
22 -37 -38 0
37 30 -11 -10 -14 0
16 37 33 -20 -24 22 0
31 -20 25 24 38 29 -14 0
30 -5 -33 31 27 -29 0
-25 27 -10 24 -16 -22 0
-31 -22 -27 -3 -34 0
-12 14 26 0
-29 -27 31 7 1 0
32 -6 -9 4 29 0
38 0
